543 5
10 10 10 10 10 

0 0 0 0 0 0 5 2 14 26 38 50 
0 0 0 0 0 0 2 3 5 
10 0 0 0 1 0 2 6 4 
8 0 0 0 2 0 3 10 8 7 
6 0 0 0 2 0 2 10 6 
6 0 0 0 2 0 2 9 8 
1 0 0 0 3 0 2 12 9 
4 0 0 0 5 0 2 12 11 
1 0 0 0 2 0 1 11 
2 0 0 0 1 0 1 11 
2 0 0 0 1 0 2 13 174 
1 0 0 0 6 0 1 13 
0 0 0 0 0 0 1 62 
0 0 0 0 0 0 2 15 16 
7 0 0 0 0 1 2 19 17 
4 0 0 0 0 2 4 24 20 19 18 
9 0 0 0 0 1 3 24 20 18 
7 0 0 0 0 1 2 23 22 
4 0 0 0 0 4 2 23 22 
2 0 0 0 0 4 1 21 
2 0 0 0 0 3 1 22 
6 0 0 0 0 4 1 25 
3 0 0 0 0 1 2 25 199 
4 0 0 0 0 4 1 25 
0 0 0 0 0 0 1 62 
0 0 0 0 0 0 3 27 28 121 
6 1 0 0 0 0 3 33 30 29 
5 1 0 0 0 0 3 36 33 32 
5 4 0 0 0 0 2 32 31 
9 3 0 0 0 0 2 36 34 
9 4 0 0 0 0 2 36 35 
3 2 0 0 0 0 1 34 
1 3 0 0 0 0 1 34 
5 3 0 0 0 0 1 35 
4 3 0 0 0 0 1 37 
10 1 0 0 0 0 1 37 
0 0 0 0 0 0 1 62 
0 0 0 0 0 0 3 39 40 45 
3 0 0 0 1 0 3 43 42 337 
5 0 0 0 1 0 1 41 
1 0 0 0 3 0 2 44 43 
6 0 0 0 2 0 2 46 44 
9 0 0 0 3 0 2 48 46 
5 0 0 0 3 0 2 48 47 
10 0 0 0 3 0 1 46 
3 0 0 0 5 0 1 47 
5 0 0 0 2 0 1 49 
5 0 0 0 2 0 1 49 
0 0 0 0 0 0 1 62 
0 0 0 0 0 0 5 51 54 55 56 58 
1 0 0 0 0 1 1 52 
2 0 0 0 0 3 1 53 
5 0 0 0 0 4 2 60 57 
6 0 0 0 0 2 2 60 57 
2 0 0 0 0 1 3 60 57 82 
4 0 0 0 0 2 1 57 
1 0 0 0 0 4 1 59 
5 0 0 0 0 3 1 59 
8 0 0 0 0 3 1 61 
10 0 0 0 0 2 1 61 
0 0 0 0 0 0 1 62 
0 0 0 0 0 0 5 63 105 147 189 201 
0 0 0 0 0 0 2 64 72 
1 0 1 1 1 1 2 103 65 
6 0 1 4 4 1 2 69 66 
10 0 2 5 2 3 4 89 76 73 67 
3 0 1 3 3 1 1 68 
7 0 4 1 2 1 2 74 70 
5 0 1 2 3 1 4 92 89 75 74 
8 0 3 2 1 1 2 92 71 
5 0 1 5 2 2 3 91 87 75 
8 0 1 3 2 2 1 73 
10 0 3 3 4 3 1 74 
6 0 4 2 1 4 4 102 87 80 77 
5 0 3 2 3 3 3 102 80 77 
8 0 3 1 1 2 3 91 87 78 
8 0 2 1 2 3 2 101 78 
2 0 2 2 3 2 2 100 79 
2 0 2 2 4 2 3 99 98 81 
5 0 3 1 2 5 5 101 98 97 96 83 
8 0 2 2 1 3 2 97 82 
4 0 3 2 3 5 2 96 83 
4 0 3 3 3 3 1 84 
5 0 3 4 3 2 2 95 85 
8 0 2 1 3 2 1 86 
1 0 6 3 2 2 2 93 88 
1 0 2 2 4 2 1 88 
9 0 3 2 1 4 1 90 
10 0 2 6 2 3 1 91 
1 0 2 2 2 1 1 94 
2 0 2 3 2 1 1 93 
9 0 3 2 4 2 2 93 459 
2 0 3 4 3 5 1 104 
3 0 4 3 1 3 1 104 
10 0 4 2 2 3 1 104 
7 0 1 1 2 2 1 104 
10 0 2 4 2 3 1 104 
7 0 1 1 2 3 1 104 
3 0 5 2 4 3 1 104 
8 0 3 1 2 2 1 104 
2 0 3 4 2 2 1 104 
6 0 1 3 6 5 1 104 
4 0 3 3 4 2 1 104 
0 0 0 0 0 0 1 543 
0 0 0 0 0 0 2 106 109 
5 1 0 1 1 1 1 107 
3 3 0 5 2 1 3 139 111 108 
1 3 0 3 1 6 4 129 117 115 110 
9 2 0 6 3 3 2 115 113 
7 2 0 1 4 1 1 112 
8 3 0 1 2 1 4 132 129 116 114 
5 1 0 3 1 2 2 116 113 
4 3 0 2 5 3 2 132 114 
4 2 0 1 3 3 3 133 127 118 
2 3 0 3 3 1 2 133 116 
5 2 0 1 1 3 3 127 122 119 
7 4 0 2 3 2 4 133 127 122 120 
2 1 0 1 2 4 2 122 119 
4 1 0 2 1 3 2 136 120 
6 2 0 2 2 3 1 121 
10 5 0 1 1 3 5 145 144 138 131 123 
10 1 0 4 4 3 3 138 131 123 
2 2 0 2 3 2 2 143 124 
2 1 0 4 2 6 2 135 125 
10 1 0 4 2 1 1 126 
5 2 0 2 1 2 1 128 
10 2 0 3 2 2 1 128 
5 4 0 3 5 2 2 142 130 
9 4 0 4 2 3 2 133 130 
3 1 0 2 2 2 2 141 134 
9 4 0 3 3 5 2 142 135 
4 2 0 3 1 3 2 142 133 
5 2 0 2 5 3 2 141 140 
8 3 0 3 1 2 1 137 
9 2 0 1 1 3 1 137 
5 5 0 3 3 4 1 137 
7 2 0 1 3 2 1 140 
5 2 0 3 3 3 1 142 
3 3 0 2 6 1 1 140 
9 2 0 3 1 3 1 146 
1 3 0 2 1 2 1 146 
2 5 0 3 4 1 1 146 
6 4 0 1 2 1 1 146 
7 1 0 3 4 3 1 146 
7 4 0 4 4 1 1 146 
0 0 0 0 0 0 1 543 
0 0 0 0 0 0 2 148 151 
3 1 0 1 1 1 1 149 
6 2 0 2 1 2 3 181 153 150 
6 1 0 2 2 3 4 168 159 157 152 
10 1 0 2 2 1 2 157 155 
2 5 0 3 1 2 1 154 
10 2 0 3 2 4 4 174 168 158 156 
5 3 0 2 2 2 2 158 155 
4 2 0 3 1 1 2 174 156 
6 3 0 3 2 4 3 175 170 160 
7 5 0 2 2 3 2 175 158 
10 3 0 5 5 1 3 170 164 161 
2 5 0 2 3 1 4 175 170 164 162 
7 5 0 2 6 3 2 164 161 
7 1 0 1 2 2 2 178 162 
3 3 0 2 3 2 1 163 
9 1 0 3 6 4 5 187 186 180 173 165 
8 2 0 7 2 2 3 180 173 165 
2 3 0 2 3 2 2 185 166 
6 1 0 1 1 3 2 177 167 
3 4 0 2 3 1 1 169 
7 1 0 1 4 3 3 177 175 172 
7 2 0 3 1 2 1 171 
9 1 0 5 3 3 1 171 
2 2 0 2 3 1 2 184 172 
7 1 0 3 2 4 2 183 176 
4 3 0 1 1 2 2 184 177 
1 2 0 3 1 2 2 184 175 
1 5 0 2 2 3 2 183 182 
10 2 0 2 2 1 1 179 
4 2 0 4 1 2 1 179 
4 3 0 3 3 2 1 179 
8 3 0 2 4 4 1 182 
9 2 0 3 1 2 1 184 
4 4 0 3 3 3 1 182 
4 1 0 5 2 6 1 188 
7 1 0 2 5 6 1 188 
5 4 0 2 2 3 1 188 
2 3 0 2 3 3 1 188 
5 2 0 1 3 2 1 188 
6 3 0 1 4 2 1 188 
0 0 0 0 0 0 1 543 
0 0 0 0 0 0 3 190 191 192 
4 0 1 0 0 0 3 198 194 193 
6 0 3 0 0 0 3 198 194 193 
10 0 5 0 0 0 2 198 193 
6 0 2 0 0 0 2 197 195 
8 0 1 0 0 0 1 195 
3 0 2 0 0 0 1 196 
3 0 5 0 0 0 1 199 
1 0 2 0 0 0 1 199 
7 0 2 0 0 0 1 199 
7 0 2 0 0 0 1 200 
0 0 0 0 0 0 5 243 275 307 339 371 
0 0 0 0 0 0 2 202 204 
3 0 1 1 1 1 1 203 
3 0 1 1 2 3 2 206 205 
1 0 2 4 2 3 1 205 
9 0 4 4 4 4 4 219 211 209 208 
7 0 3 4 2 1 3 211 209 207 
8 0 2 2 1 1 1 208 
8 0 4 3 2 2 3 215 214 210 
7 0 6 3 2 4 3 222 214 213 
2 0 1 3 2 3 2 222 212 
5 0 5 3 2 2 2 214 213 
1 0 2 4 1 2 1 213 
3 0 2 2 3 2 3 225 223 216 
6 0 1 3 1 1 3 225 223 216 
6 0 1 3 3 5 3 225 223 216 
5 0 6 2 3 3 2 220 217 
8 0 5 3 2 2 1 218 
3 0 3 2 5 2 4 237 229 228 221 
5 0 4 2 2 2 4 230 228 226 222 
4 0 3 2 4 1 2 229 221 
9 0 1 3 2 3 1 224 
7 0 1 1 3 3 4 237 235 231 225 
10 0 3 4 4 3 3 237 232 226 
9 0 3 1 4 2 2 230 226 
8 0 2 4 2 2 2 234 229 
3 0 1 1 2 3 1 227 
4 0 1 4 2 2 2 235 231 
3 0 1 3 3 4 2 233 231 
9 0 2 1 2 1 1 232 
9 0 3 2 3 1 1 232 
3 0 5 2 2 1 2 241 234 
6 0 4 1 4 5 1 233 
8 0 2 2 2 4 3 241 240 236 
6 0 1 1 2 1 2 240 236 
8 0 2 4 2 3 2 241 240 
2 0 2 2 5 2 1 238 
6 0 1 5 2 4 1 238 
2 0 2 3 2 1 1 239 
5 0 2 2 1 7 1 242 
4 0 1 2 5 2 1 242 
4 0 4 1 2 2 1 242 
0 0 0 0 0 0 1 543 
0 0 0 0 0 0 3 244 245 250 
3 0 1 0 1 1 2 255 246 
2 0 1 0 2 3 2 255 246 
9 0 4 0 2 2 2 251 247 
2 0 2 0 3 4 2 252 248 
5 0 2 0 1 1 1 249 
9 0 3 0 1 2 3 259 256 253 
4 0 6 0 3 3 2 255 254 
2 0 1 0 2 1 1 252 
9 0 5 0 1 3 2 259 254 
7 0 1 0 2 2 1 254 
7 0 1 0 3 4 3 264 261 257 
10 0 2 0 2 3 2 259 257 
10 0 3 0 2 2 2 264 258 
1 0 3 0 4 2 1 258 
7 0 1 0 3 2 2 266 260 
7 0 2 0 2 2 2 264 260 
3 0 5 0 2 2 1 262 
6 0 2 0 4 3 1 262 
2 0 3 0 4 2 1 263 
6 0 2 0 3 2 3 273 268 265 
5 0 4 0 3 3 2 273 265 
3 0 1 0 2 2 4 272 271 269 267 
9 0 2 0 2 1 2 269 267 
3 0 4 0 1 3 1 270 
8 0 3 0 5 4 1 269 
7 0 2 0 3 5 1 274 
7 0 2 0 2 1 1 274 
5 0 1 0 3 6 1 274 
10 0 3 0 3 2 1 274 
1 0 3 0 4 2 1 274 
0 0 0 0 0 0 1 543 
0 0 0 0 0 0 3 276 277 282 
2 1 1 0 1 0 2 287 278 
9 4 2 0 3 0 2 287 278 
6 4 4 0 3 0 2 283 279 
5 4 3 0 3 0 2 285 280 
10 1 1 0 2 0 1 281 
4 2 3 0 2 0 3 291 290 284 
2 3 3 0 2 0 2 287 286 
10 2 1 0 2 0 1 285 
4 3 1 0 2 0 1 286 
3 3 3 0 2 0 1 286 
2 3 2 0 3 0 3 297 294 288 
9 2 4 0 3 0 2 290 288 
10 3 1 0 2 0 1 289 
9 1 4 0 5 0 2 298 292 
9 1 5 0 4 0 1 292 
3 1 3 0 1 0 1 292 
1 2 3 0 2 0 1 293 
9 2 2 0 2 0 2 305 295 
10 3 1 0 5 0 2 305 295 
6 7 3 0 3 0 2 300 296 
5 3 1 0 1 0 4 304 303 302 299 
4 2 2 0 2 0 3 305 303 301 
8 1 3 0 3 0 2 302 299 
9 1 4 0 4 0 1 301 
4 2 3 0 2 0 1 302 
1 2 2 0 3 0 1 306 
7 3 1 0 1 0 1 306 
4 2 4 0 1 0 1 306 
5 4 4 0 3 0 1 306 
3 3 1 0 3 0 1 306 
0 0 0 0 0 0 1 543 
0 0 0 0 0 0 3 308 309 314 
6 0 1 0 1 1 2 319 310 
7 0 3 0 1 2 2 319 310 
6 0 3 0 3 2 2 315 311 
8 0 2 0 2 5 2 317 312 
4 0 5 0 5 4 1 313 
7 0 1 0 4 1 3 324 323 316 
6 0 3 0 1 4 2 319 318 
4 0 1 0 2 4 1 317 
10 0 3 0 1 3 1 318 
4 0 3 0 3 3 1 318 
7 0 2 0 1 3 3 330 326 320 
10 0 1 0 2 2 2 323 320 
10 0 1 0 4 5 1 321 
3 0 4 0 3 1 2 329 322 
10 0 3 0 1 2 1 325 
3 0 3 0 2 2 1 325 
9 0 3 0 4 2 1 325 
8 0 2 0 3 1 2 337 327 
1 0 2 0 1 2 2 337 327 
1 0 5 0 5 2 2 332 328 
8 0 1 0 2 5 4 336 335 333 331 
5 0 3 0 2 2 2 333 331 
8 0 4 0 5 2 2 337 335 
5 0 1 0 2 3 1 334 
2 0 2 0 3 3 1 333 
5 0 1 0 3 3 1 338 
1 0 1 0 4 1 1 338 
2 0 2 0 2 2 1 338 
8 0 4 0 1 1 1 338 
9 0 5 0 2 2 1 338 
0 0 0 0 0 0 1 543 
0 0 0 0 0 0 3 340 341 347 
7 1 1 1 0 0 2 351 342 
4 3 2 4 0 0 2 351 342 
4 2 1 1 0 0 2 346 343 
9 2 1 1 0 0 2 349 344 
4 2 4 4 0 0 1 345 
10 1 3 2 0 0 3 355 352 348 
4 2 2 1 0 0 2 355 349 
3 3 4 5 0 0 2 351 350 
3 2 3 3 0 0 1 350 
8 3 1 1 0 0 1 350 
8 1 2 3 0 0 3 360 358 353 
8 2 3 1 0 0 3 360 355 353 
2 2 4 3 0 0 2 360 354 
3 2 1 4 0 0 1 354 
9 4 5 3 0 0 2 362 356 
7 4 1 2 0 0 1 356 
3 4 4 2 0 0 1 357 
9 7 3 2 0 0 1 359 
5 1 3 5 0 0 1 359 
2 2 3 3 0 0 3 369 364 361 
9 3 1 1 0 0 2 369 361 
6 1 1 4 0 0 4 368 367 365 363 
7 2 3 3 0 0 2 365 363 
7 1 2 2 0 0 1 366 
3 2 4 2 0 0 1 365 
9 2 2 1 0 0 1 370 
1 4 2 4 0 0 1 370 
5 3 3 2 0 0 1 370 
3 5 3 2 0 0 1 370 
2 2 3 3 0 0 1 370 
0 0 0 0 0 0 1 543 
0 0 0 0 0 0 4 372 374 377 381 
3 0 0 1 0 0 2 380 373 
1 0 0 3 0 0 2 379 375 
5 0 0 3 0 0 2 379 378 
9 0 0 1 0 0 1 376 
4 0 0 5 0 0 1 378 
2 0 0 1 0 0 1 380 
4 0 0 2 0 0 1 382 
5 0 0 1 0 0 1 382 
9 0 0 5 0 0 1 382 
10 0 0 3 0 0 1 382 
0 0 0 0 0 0 5 383 405 417 439 461 
0 0 0 0 0 0 3 384 386 403 
4 1 1 0 0 0 3 402 401 385 
6 3 1 0 0 0 4 400 399 398 387 
9 2 4 0 0 0 3 399 398 387 
5 5 3 0 0 0 2 394 388 
7 1 3 0 0 0 3 397 396 389 
9 2 1 0 0 0 1 390 
8 4 2 0 0 0 1 391 
5 3 3 0 0 0 1 392 
4 3 1 0 0 0 1 393 
7 5 1 0 0 0 1 395 
3 5 4 0 0 0 1 396 
7 2 2 0 0 0 1 404 
10 1 6 0 0 0 1 404 
10 1 3 0 0 0 1 404 
4 2 3 0 0 0 1 404 
5 3 3 0 0 0 1 404 
1 2 1 0 0 0 1 404 
1 3 2 0 0 0 1 404 
7 1 2 0 0 0 1 404 
5 1 4 0 0 0 1 404 
0 0 0 0 0 0 1 543 
0 0 0 0 0 0 3 406 408 409 
4 0 0 0 0 1 3 413 410 407 
3 0 0 0 0 3 2 415 411 
9 0 0 0 0 2 2 415 411 
6 0 0 0 0 1 2 414 413 
8 0 0 0 0 4 2 415 414 
2 0 0 0 0 3 1 412 
9 0 0 0 0 1 1 414 
10 0 0 0 0 2 1 415 
4 0 0 0 0 5 1 416 
3 0 0 0 0 3 1 416 
0 0 0 0 0 0 5 483 495 507 519 531 
0 0 0 0 0 0 1 418 
10 0 1 0 1 0 1 419 
1 0 4 0 2 0 2 421 420 
1 0 4 0 4 0 1 422 
5 0 3 0 4 0 1 422 
3 0 2 0 3 0 1 423 
2 0 3 0 3 0 2 425 424 
3 0 1 0 2 0 3 431 428 426 
8 0 3 0 2 0 2 431 426 
4 0 5 0 3 0 3 430 429 427 
6 0 2 0 2 0 5 437 436 434 433 432 
9 0 4 0 3 0 5 437 436 434 433 432 
4 0 1 0 1 0 4 437 436 433 432 
9 0 1 0 4 0 4 436 434 433 432 
5 0 2 0 2 0 2 437 436 
1 0 2 0 1 0 1 435 
8 0 2 0 3 0 1 435 
7 0 2 0 3 0 1 435 
6 0 3 0 2 0 1 438 
8 0 2 0 3 0 1 438 
7 0 3 0 2 0 1 438 
0 0 0 0 0 0 1 543 
0 0 0 0 0 0 3 440 442 444 
4 0 1 0 0 1 2 449 441 
3 0 4 0 0 2 2 453 443 
1 0 4 0 0 1 5 457 454 449 448 447 
8 0 3 0 0 3 2 448 445 
6 0 2 0 0 4 3 457 449 447 
7 0 3 0 0 3 1 446 
10 0 4 0 0 5 2 457 447 
3 0 3 0 0 3 4 459 456 452 450 
3 0 1 0 0 2 2 459 450 
9 0 3 0 0 3 2 459 452 
1 0 3 0 0 1 1 451 
9 0 2 0 0 3 1 455 
4 0 3 0 0 2 1 455 
5 0 3 0 0 2 1 456 
8 0 1 0 0 3 1 456 
9 0 2 0 0 1 1 458 
2 0 2 0 0 2 1 458 
6 0 3 0 0 4 1 459 
8 0 2 0 0 2 1 460 
6 0 1 0 0 3 1 460 
0 0 0 0 0 0 1 543 
0 0 0 0 0 0 3 462 464 468 
8 0 0 1 1 0 1 463 
6 0 0 2 3 0 3 476 472 465 
9 0 0 3 2 0 3 476 472 465 
3 0 0 2 3 0 4 481 480 475 466 
5 0 0 5 3 0 2 471 467 
8 0 0 1 4 0 3 479 478 469 
3 0 0 1 3 0 2 478 470 
5 0 0 1 2 0 1 470 
9 0 0 2 2 0 1 473 
9 0 0 5 2 0 2 478 477 
10 0 0 4 3 0 2 480 478 
4 0 0 3 1 0 1 474 
10 0 0 2 5 0 1 477 
7 0 0 4 1 0 1 479 
10 0 0 4 3 0 1 480 
10 0 0 2 2 0 1 482 
6 0 0 2 3 0 1 482 
7 0 0 1 2 0 1 482 
4 0 0 3 3 0 1 482 
1 0 0 2 2 0 1 482 
0 0 0 0 0 0 1 543 
0 0 0 0 0 0 3 484 489 490 
6 0 0 1 0 0 2 487 485 
7 0 0 2 0 0 2 493 486 
9 0 0 1 0 0 2 492 488 
5 0 0 3 0 0 2 492 491 
2 0 0 3 0 0 1 491 
10 0 0 2 0 0 1 492 
7 0 0 4 0 0 1 491 
2 0 0 2 0 0 1 494 
2 0 0 3 0 0 1 494 
9 0 0 4 0 0 1 494 
0 0 0 0 0 0 1 543 
0 0 0 0 0 0 4 496 497 498 500 
2 0 0 0 0 1 1 499 
9 0 0 0 0 1 1 499 
8 0 0 0 0 2 1 499 
10 0 0 0 0 2 1 501 
10 0 0 0 0 2 1 501 
1 0 0 0 0 4 3 505 504 502 
2 0 0 0 0 2 1 503 
7 0 0 0 0 4 1 506 
7 0 0 0 0 4 1 506 
4 0 0 0 0 3 1 506 
0 0 0 0 0 0 1 543 
0 0 0 0 0 0 6 508 510 511 515 516 517 
1 0 0 0 1 0 1 509 
3 0 0 0 2 0 1 512 
6 0 0 0 4 0 1 512 
5 0 0 0 2 0 1 512 
6 0 0 0 2 0 1 513 
6 0 0 0 3 0 1 514 
3 0 0 0 2 0 1 518 
9 0 0 0 3 0 1 518 
2 0 0 0 4 0 1 518 
3 0 0 0 2 0 1 518 
0 0 0 0 0 0 1 543 
0 0 0 0 0 0 2 520 521 
7 0 1 0 0 0 3 526 523 522 
2 0 2 0 0 0 3 529 526 525 
5 0 2 0 0 0 2 529 524 
3 0 3 0 0 0 3 529 527 525 
10 0 1 0 0 0 2 527 525 
9 0 4 0 0 0 1 528 
1 0 2 0 0 0 1 527 
8 0 3 0 0 0 1 530 
7 0 5 0 0 0 1 530 
4 0 2 0 0 0 1 530 
0 0 0 0 0 0 1 543 
0 0 0 0 0 0 3 532 534 535 
6 0 0 1 0 0 2 539 533 
2 0 0 6 0 0 2 537 536 
10 0 0 3 0 0 1 536 
5 0 0 2 0 0 1 536 
9 0 0 3 0 0 2 540 538 
5 0 0 3 0 0 2 540 538 
9 0 0 2 0 0 1 541 
7 0 0 1 0 0 1 540 
8 0 0 1 0 0 1 542 
3 0 0 3 0 0 1 542 
0 0 0 0 0 0 1 543 
0 0 0 0 0 0 0 
